c SAT Generator for power-law distributed variable frequencies
c -g u -v 20 -c 91 -k 3 -p 2.750000 -b 3.200000 -f /home/schmidt/Devel/ni-kop-sat/data/ensemble/ruf20-91/ruf20-91-823 -u 1 -U 1 -s 1844385798
p cnf 20 91
-15 16 20 0
13 -14 16 0
2 13 15 0
9 -11 -12 0
5 -11 -12 0
-6 10 -18 0
-4 -15 19 0
-6 10 20 0
-1 -10 14 0
9 -11 16 0
4 -15 -16 0
1 10 -15 0
-5 -10 -13 0
2 -7 -10 0
5 -13 18 0
-7 -18 -20 0
1 -6 7 0
1 8 -10 0
3 -6 16 0
-15 16 -18 0
-6 -11 -19 0
-2 -6 -7 0
1 5 -11 0
-12 -19 20 0
6 -7 8 0
5 6 -11 0
1 -10 -11 0
-8 17 -20 0
-6 -11 18 0
-1 -12 16 0
15 -19 20 0
5 15 19 0
3 -5 16 0
2 -4 15 0
-2 -18 20 0
-7 -12 19 0
5 7 -9 0
1 -6 12 0
6 9 20 0
3 9 -13 0
-1 -6 -9 0
4 -14 19 0
12 17 -18 0
-2 8 -11 0
-6 -7 12 0
15 -16 20 0
-2 8 -13 0
-3 -7 -9 0
-5 -12 13 0
4 5 20 0
-9 -14 -19 0
6 9 -15 0
6 -12 -14 0
-3 -9 -17 0
2 3 11 0
1 7 8 0
1 -17 -19 0
-1 -2 11 0
2 -4 17 0
2 8 -16 0
-2 3 -4 0
-4 -5 -6 0
-12 -17 -18 0
5 -6 -8 0
-2 -3 -12 0
6 10 -11 0
4 -13 20 0
2 12 19 0
2 8 -10 0
-9 11 16 0
-8 16 -20 0
-15 -16 19 0
-10 -11 19 0
-12 14 -17 0
9 11 -19 0
-8 -10 14 0
-5 13 18 0
5 -6 12 0
1 -2 8 0
-4 -6 10 0
4 -7 -18 0
2 -6 -8 0
-3 -6 -14 0
4 -9 11 0
-4 6 -18 0
-6 9 16 0
-4 -6 -19 0
-5 -12 19 0
2 -15 -20 0
5 -7 11 0
-4 -7 -19 0
